
Gurobi 7.5.2 (linux64) logging started Sat Jun 23 16:25:59 2018

Changed value of parameter LogFile to result/ilp/simNo_2-n_100-m_40-s_4-minVAF_0.05-cov_2000-k_1-fn_0.25-fp_0.0001-na_0.15.ILP.gurobiSolverLog
   Prev: gurobi.log  Default: 
Changed value of parameter TimeLimit to 86400.0
   Prev: 1e+100  Min: 0.0  Max: 1e+100  Default: 1e+100
Optimize a model with 1265601 rows, 330440 columns and 3489120 nonzeros
Variable types: 0 continuous, 330440 integer (330440 binary)
Coefficient statistics:
  Matrix range     [2e-03, 3e+00]
  Objective range  [1e+00, 2e+01]
  Bounds range     [1e+00, 1e+00]
  RHS range        [2e-01, 2e+00]
Found heuristic solution: objective -16762.63747
Presolve removed 300571 rows and 207691 columns (presolve time = 5s) ...
Presolve removed 301424 rows and 207691 columns (presolve time = 10s) ...
Presolve removed 302278 rows and 207691 columns (presolve time = 15s) ...
Presolve removed 302278 rows and 207691 columns (presolve time = 21s) ...
Presolve removed 302278 rows and 207691 columns (presolve time = 25s) ...
Presolve removed 302278 rows and 207691 columns (presolve time = 30s) ...
Presolve removed 302278 rows and 207691 columns (presolve time = 36s) ...
Presolve removed 302278 rows and 207691 columns
Presolve time: 37.86s
Presolved: 963323 rows, 122749 columns, 2669389 nonzeros
Variable types: 0 continuous, 122749 integer (122749 binary)
Presolve removed 0 rows and 0 columns (presolve time = 5s) ...
Presolved: 122749 rows, 1086072 columns, 2792138 nonzeros

Presolve removed 122749 rows and 1086072 columns

Root simplex log...

Iteration    Objective       Primal Inf.    Dual Inf.      Time
       0    2.4958781e+01   0.000000e+00   1.095660e+05     50s
    7650   -1.9346035e+02   0.000000e+00   3.106410e+05     50s
   18686   -2.7664882e+02   0.000000e+00   1.253415e+06     55s
   28094   -2.8924056e+02   0.000000e+00   2.123860e+05     60s
   35738   -3.0206407e+02   0.000000e+00   4.039595e+05     65s
   44558   -3.1983137e+02   0.000000e+00   6.025120e+05     70s
   52790   -3.3124834e+02   0.000000e+00   2.552012e+05     75s
   61022   -3.4293426e+02   0.000000e+00   1.291826e+05     80s
   70430   -3.5241819e+02   0.000000e+00   2.776955e+05     85s
   78074   -3.6069406e+02   0.000000e+00   1.537288e+05     90s
   87482   -3.7289026e+02   0.000000e+00   1.558174e+05     95s
   98066   -3.8294535e+02   0.000000e+00   1.428832e+06    100s
  106886   -3.9121027e+02   0.000000e+00   1.813535e+05    105s
  114530   -3.9795672e+02   0.000000e+00   2.086756e+05    110s
  122762   -4.0480501e+02   0.000000e+00   9.241850e+04    115s
  132758   -4.1313836e+02   0.000000e+00   3.870159e+04    120s
  141578   -4.2129278e+02   0.000000e+00   1.070712e+04    125s
  143599   -4.2370256e+02   0.000000e+00   0.000000e+00    127s
  143599   -4.2370256e+02   0.000000e+00   0.000000e+00    129s

Root relaxation: objective -4.237026e+02, 143599 iterations, 88.03 seconds
Total elapsed time = 130.95s
Total elapsed time = 186.11s
Total elapsed time = 223.11s
Total elapsed time = 273.56s

    Nodes    |    Current Node    |     Objective Bounds      |     Work
 Expl Unexpl |  Obj  Depth IntInf | Incumbent    BestBd   Gap | It/Node Time

     0     0 -423.70256    0 2073 -16762.637 -423.70256  97.5%     -  282s
H    0     0                    -512.2956107 -423.70256  17.3%     -  546s
     0     0 -426.70797    0 2073 -512.29561 -426.70797  16.7%     -  747s
     0     0 -426.72591    0 2092 -512.29561 -426.72591  16.7%     - 1188s
     0     0 -428.48430    0 2091 -512.29561 -428.48430  16.4%     - 1226s
     0     0 -428.52318    0 2074 -512.29561 -428.52318  16.4%     - 1605s
     0     0 -429.88683    0 2081 -512.29561 -429.88683  16.1%     - 1652s
     0     0 -429.88683    0 2084 -512.29561 -429.88683  16.1%     - 1969s
     0     0 -430.85274    0 2118 -512.29561 -430.85274  15.9%     - 2014s
     0     0 -431.24798    0 2098 -512.29561 -431.24798  15.8%     - 2363s
     0     0 -431.28387    0 2101 -512.29561 -431.28387  15.8%     - 2374s
     0     0 -431.28387    0 2101 -512.29561 -431.28387  15.8%     - 2383s
     0     0 -432.71879    0 2079 -512.29561 -432.71879  15.5%     - 2423s
     0     0 -432.84439    0 2085 -512.29561 -432.84439  15.5%     - 2955s
     0     0 -432.84439    0 2087 -512.29561 -432.84439  15.5%     - 2966s
     0     0 -434.31569    0 2077 -512.29561 -434.31569  15.2%     - 3136s
     0     0 -434.31569    0 2081 -512.29561 -434.31569  15.2%     - 3493s
     0     0 -434.88089    0 2080 -512.29561 -434.88089  15.1%     - 3551s
     0     0 -435.26815    0 2096 -512.29561 -435.26815  15.0%     - 4078s
     0     0 -435.38329    0 2097 -512.29561 -435.38329  15.0%     - 4099s
     0     0 -435.38329    0 2078 -512.29561 -435.38329  15.0%     - 4111s
     0     0 -436.53461    0 2087 -512.29561 -436.53461  14.8%     - 4169s
     0     0 -436.54508    0 2087 -512.29561 -436.54508  14.8%     - 4599s
     0     0 -436.54508    0 2089 -512.29561 -436.54508  14.8%     - 4611s
     0     0 -437.46823    0 2091 -512.29561 -437.46823  14.6%     - 4655s
     0     0 -437.56871    0 2083 -512.29561 -437.56871  14.6%     - 4957s
     0     0 -437.58127    0 2093 -512.29561 -437.58127  14.6%     - 4971s
     0     0 -437.58698    0 2097 -512.29561 -437.58698  14.6%     - 4982s
     0     0 -437.58698    0 2098 -512.29561 -437.58698  14.6%     - 4993s
     0     0 -438.33905    0 2090 -512.29561 -438.33905  14.4%     - 5037s
     0     0 -439.01769    0 2086 -512.29561 -439.01769  14.3%     - 5658s
     0     0 -439.27686    0 2099 -512.29561 -439.27686  14.3%     - 5676s
     0     0 -439.27686    0 2093 -512.29561 -439.27686  14.3%     - 5686s
     0     0 -439.77926    0 2072 -512.29561 -439.77926  14.2%     - 5726s
     0     0 -439.90793    0 2101 -512.29561 -439.90793  14.1%     - 5749s
     0     0 -439.94672    0 2088 -512.29561 -439.94672  14.1%     - 5765s
     0     0 -439.95196    0 2107 -512.29561 -439.95196  14.1%     - 5778s
     0     0 -439.98650    0 2102 -512.29561 -439.98650  14.1%     - 5791s
     0     0 -439.98839    0 2106 -512.29561 -439.98839  14.1%     - 5805s
     0     0 -439.98839    0 2106 -512.29561 -439.98839  14.1%     - 5813s
     0     0 -441.26342    0 2082 -512.29561 -441.26342  13.9%     - 5857s
     0     0 -441.54811    0 2085 -512.29561 -441.54811  13.8%     - 5875s
     0     0 -441.54811    0 2087 -512.29561 -441.54811  13.8%     - 5886s
     0     0 -442.41684    0 2094 -512.29561 -442.41684  13.6%     - 5932s
     0     0 -442.88784    0 2087 -512.29561 -442.88784  13.5%     - 5998s
     0     0 -442.91924    0 2064 -512.29561 -442.91924  13.5%     - 6024s
     0     0 -442.91924    0 2045 -512.29561 -442.91924  13.5%     - 6039s
     0     0 -443.40593    0 2086 -512.29561 -443.40593  13.4%     - 6096s
     0     0 -443.40676    0 2096 -512.29561 -443.40676  13.4%     - 6422s
     0     0 -444.35914    0 2077 -512.29561 -444.35914  13.3%     - 6570s
     0     0 -444.52848    0 2094 -512.29561 -444.52848  13.2%     - 6981s
     0     0 -444.79156    0 2097 -512.29561 -444.79156  13.2%     - 7023s
     0     0 -444.89816    0 2086 -512.29561 -444.89816  13.2%     - 7087s
     0     0 -444.95080    0 2090 -512.29561 -444.95080  13.1%     - 7129s
     0     0 -444.96197    0 2098 -512.29561 -444.96197  13.1%     - 7146s
     0     0 -444.96197    0 2105 -512.29561 -444.96197  13.1%     - 7160s
     0     0 -446.44779    0 2095 -512.29561 -446.44779  12.9%     - 7368s
     0     0 -446.63128    0 2236 -512.29561 -446.63128  12.8%     - 7987s
     0     0 -446.79193    0 2243 -512.29561 -446.79193  12.8%     - 8136s
     0     0 -446.79205    0 2251 -512.29561 -446.79205  12.8%     - 8147s
     0     0 -447.98432    0 2238 -512.29561 -447.98432  12.6%     - 8405s
     0     0 -448.23360    0 2095 -512.29561 -448.23360  12.5%     - 8921s
     0     0 -448.29496    0 2247 -512.29561 -448.29496  12.5%     - 8991s
     0     0 -448.30139    0 2244 -512.29561 -448.30139  12.5%     - 9009s
     0     0 -448.30362    0 2251 -512.29561 -448.30362  12.5%     - 9019s
     0     0 -449.83766    0 2081 -512.29561 -449.83766  12.2%     - 9133s
     0     0 -450.27759    0 2106 -512.29561 -450.27759  12.1%     - 9795s
     0     0 -450.32640    0 2085 -512.29561 -450.32640  12.1%     - 9851s
     0     0 -450.36059    0 2240 -512.29561 -450.36059  12.1%     - 9879s
     0     0 -450.37564    0 2243 -512.29561 -450.37564  12.1%     - 9898s
     0     0 -450.37806    0 2106 -512.29561 -450.37806  12.1%     - 9913s
     0     0 -451.13575    0 2239 -512.29561 -451.13575  11.9%     - 9988s
     0     0 -451.34048    0 2246 -512.29561 -451.34048  11.9%     - 10624s
     0     0 -451.37361    0 2239 -512.29561 -451.37361  11.9%     - 10641s
     0     0 -451.37696    0 2250 -512.29561 -451.37696  11.9%     - 10650s
     0     0 -451.37696    0 2254 -512.29561 -451.37696  11.9%     - 10658s
     0     0 -452.03880    0 2246 -512.29561 -452.03880  11.8%     - 10764s
     0     0 -452.47732    0 2238 -512.29561 -452.47732  11.7%     - 11203s
     0     0 -452.70228    0 2237 -512.29561 -452.70228  11.6%     - 11296s
     0     0 -452.71381    0 2258 -512.29561 -452.71381  11.6%     - 11352s
     0     0 -452.72585    0 2248 -512.29561 -452.72585  11.6%     - 11370s
     0     0 -452.75335    0 2248 -512.29561 -452.75335  11.6%     - 11388s
     0     0 -452.75953    0 2256 -512.29561 -452.75953  11.6%     - 11402s
     0     0 -452.76423    0 2251 -512.29561 -452.76423  11.6%     - 11414s
     0     0 -452.76466    0 2251 -512.29561 -452.76466  11.6%     - 11427s
     0     0 -453.37860    0 2247 -512.29561 -453.37860  11.5%     - 11611s
     0     0 -453.72217    0 2250 -512.29561 -453.72217  11.4%     - 12039s
     0     0 -453.77646    0 2251 -512.29561 -453.77646  11.4%     - 12070s
     0     0 -453.82047    0 2251 -512.29561 -453.82047  11.4%     - 12095s
     0     0 -453.83714    0 2247 -512.29561 -453.83714  11.4%     - 12113s
     0     0 -453.83729    0 2257 -512.29561 -453.83729  11.4%     - 12121s
     0     0 -454.51539    0 2250 -512.29561 -454.51539  11.3%     - 12297s
     0     0 -454.68316    0 2244 -512.29561 -454.68316  11.2%     - 12490s
     0     0 -454.79480    0 2244 -512.29561 -454.79480  11.2%     - 12547s
     0     0 -454.87156    0 2253 -512.29561 -454.87156  11.2%     - 12683s
     0     0 -454.87274    0 2252 -512.29561 -454.87274  11.2%     - 12699s
     0     0 -455.39423    0 2241 -512.29561 -455.39423  11.1%     - 13042s
     0     0 -455.42692    0 2245 -512.29561 -455.42692  11.1%     - 13087s
     0     0 -455.44034    0 2248 -512.29561 -455.44034  11.1%     - 13110s
     0     0 -455.44536    0 2257 -512.29561 -455.44536  11.1%     - 13132s
     0     0 -455.44686    0 2255 -512.29561 -455.44686  11.1%     - 13148s
     0     0 -456.28006    0 2228 -512.29561 -456.28006  10.9%     - 13396s
     0     0 -456.50775    0 2239 -512.29561 -456.50775  10.9%     - 13791s
     0     0 -456.64825    0 2239 -512.29561 -456.64825  10.9%     - 13835s
     0     0 -456.68011    0 2241 -512.29561 -456.68011  10.9%     - 13862s
     0     0 -456.72280    0 2247 -512.29561 -456.72280  10.8%     - 13879s
     0     0 -456.74627    0 2248 -512.29561 -456.74627  10.8%     - 13892s
     0     0 -456.75616    0 2247 -512.29561 -456.75616  10.8%     - 13904s
     0     0 -456.75693    0 2251 -512.29561 -456.75693  10.8%     - 13913s
     0     0 -457.59885    0 2226 -512.29561 -457.59885  10.7%     - 14095s
     0     0 -457.77937    0 2242 -512.29561 -457.77937  10.6%     - 14375s
     0     0 -457.84618    0 2242 -512.29561 -457.84618  10.6%     - 14413s
     0     0 -457.84668    0 2245 -512.29561 -457.84668  10.6%     - 14424s
     0     0 -459.01051    0 2239 -512.29561 -459.01051  10.4%     - 14626s
     0     0 -459.04455    0 2136 -512.29561 -459.04455  10.4%     - 14942s
     0     0 -459.11684    0 2253 -512.29561 -459.11684  10.4%     - 15019s
     0     0 -459.14688    0 2245 -512.29561 -459.14688  10.4%     - 15042s
     0     0 -459.15612    0 2247 -512.29561 -459.15612  10.4%     - 15056s
     0     0 -459.15780    0 2251 -512.29561 -459.15780  10.4%     - 15065s
     0     0 -459.87382    0 2248 -512.29561 -459.87382  10.2%     - 15253s
     0     0 -460.08260    0 2256 -512.29561 -460.08260  10.2%     - 15663s
     0     0 -460.13078    0 2129 -512.29561 -460.13078  10.2%     - 15697s
     0     0 -460.16753    0 2255 -512.29561 -460.16753  10.2%     - 15729s
     0     0 -460.17141    0 2252 -512.29561 -460.17141  10.2%     - 15744s
     0     0 -460.17386    0 2256 -512.29561 -460.17386  10.2%     - 15754s
     0     0 -460.85225    0 2237 -512.29561 -460.85225  10.0%     - 15915s
     0     0 -461.21589    0 2244 -512.29561 -461.21589  10.0%     - 16291s
     0     0 -461.23741    0 2264 -512.29561 -461.23741  10.0%     - 16342s
     0     0 -461.28180    0 2253 -512.29561 -461.28180  10.0%     - 16405s
     0     0 -461.29031    0 2259 -512.29561 -461.29031  10.0%     - 16427s
     0     0 -461.31104    0 2254 -512.29561 -461.31104  10.0%     - 16453s
     0     0 -461.31104    0 2256 -512.29561 -461.31104  10.0%     - 16465s
     0     0 -461.90875    0 2259 -512.29561 -461.90875  9.84%     - 16647s
     0     0 -461.98452    0 2253 -512.29561 -461.98452  9.82%     - 17092s
     0     0 -461.99060    0 2251 -512.29561 -461.99060  9.82%     - 17107s
     0     0 -461.99507    0 2259 -512.29561 -461.99507  9.82%     - 17121s
     0     0 -461.99526    0 2269 -512.29561 -461.99526  9.82%     - 17128s
     0     0 -462.85793    0 2269 -512.29561 -462.85793  9.65%     - 17392s
     0     0 -462.95557    0 2265 -512.29561 -462.95557  9.63%     - 17673s
     0     0 -462.98134    0 2258 -512.29561 -462.98134  9.63%     - 17692s
     0     0 -462.98308    0 2254 -512.29561 -462.98308  9.63%     - 17704s
     0     0 -463.74958    0 2260 -512.29561 -463.74958  9.48%     - 17956s
     0     0 -463.98371    0 2258 -512.29561 -463.98371  9.43%     - 18566s
     0     0 -464.01140    0 2250 -512.29561 -464.01140  9.43%     - 18593s
     0     0 -464.01236    0 2252 -512.29561 -464.01236  9.42%     - 18608s
     0     0 -464.64736    0 2250 -512.29561 -464.64736  9.30%     - 18852s
     0     0 -465.04210    0 2265 -512.29561 -465.04210  9.22%     - 19506s
     0     0 -465.08125    0 2255 -512.29561 -465.08125  9.22%     - 19636s
     0     0 -465.08125    0 2257 -512.29561 -465.08125  9.22%     - 19654s
     0     0 -465.33495    0 2248 -512.29561 -465.33495  9.17%     - 19890s
     0     0 -465.35771    0 2260 -512.29561 -465.35771  9.16%     - 20361s
     0     0 -465.40438    0 2257 -512.29561 -465.40438  9.15%     - 20456s
     0     0 -465.41328    0 2250 -512.29561 -465.41328  9.15%     - 20488s
     0     0 -465.41351    0 2252 -512.29561 -465.41351  9.15%     - 20507s
     0     0 -465.55838    0 2240 -512.29561 -465.55838  9.12%     - 20735s
     0     0 -465.66011    0 2245 -512.29561 -465.66011  9.10%     - 21034s
     0     0 -465.68718    0 2247 -512.29561 -465.68718  9.10%     - 21065s
     0     0 -465.69010    0 2240 -512.29561 -465.69010  9.10%     - 21085s
     0     0 -465.81476    0 2245 -512.29561 -465.81476  9.07%     - 21205s
     0     0 -465.87478    0 2242 -512.29561 -465.87478  9.06%     - 21665s
     0     0 -465.89132    0 2233 -512.29561 -465.89132  9.06%     - 21697s
     0     0 -465.89337    0 2243 -512.29561 -465.89337  9.06%     - 21712s
     0     0 -466.23162    0 2238 -512.29561 -466.23162  8.99%     - 21951s
     0     0 -466.39279    0 2250 -512.29561 -466.39279  8.96%     - 22426s
     0     0 -466.63389    0 2250 -512.29561 -466.63389  8.91%     - 22589s
     0     0 -466.67074    0 2239 -512.29561 -466.67074  8.91%     - 22621s
     0     0 -466.67118    0 2245 -512.29561 -466.67118  8.91%     - 22642s
     0     0 -466.86863    0 2141 -512.29561 -466.86863  8.87%     - 22945s
     0     0 -467.03598    0 2238 -512.29561 -467.03598  8.83%     - 23509s
     0     0 -467.04508    0 2245 -512.29561 -467.04508  8.83%     - 23573s
     0     0 -467.05446    0 2240 -512.29561 -467.05446  8.83%     - 23595s
     0     0 -467.07493    0 2241 -512.29561 -467.07493  8.83%     - 23646s
     0     0 -467.07502    0 2242 -512.29561 -467.07502  8.83%     - 23662s
     0     0 -467.30815    0 2245 -512.29561 -467.30815  8.78%     - 23815s
     0     0 -467.36744    0 2241 -512.29561 -467.36744  8.77%     - 24080s
     0     0 -467.37744    0 2250 -512.29561 -467.37744  8.77%     - 24111s
     0     0 -467.38121    0 2265 -512.29561 -467.38121  8.77%     - 24125s
     0     0 -467.38415    0 2264 -512.29561 -467.38415  8.77%     - 24149s
     0     0 -467.46557    0 2251 -512.29561 -467.46557  8.75%     - 24338s
     0     0 -467.46983    0 2264 -512.29561 -467.46983  8.75%     - 24356s
     0     0 -468.34783    0 2249 -512.29561 -468.34783  8.58%     - 24917s
     0     0 -468.36344    0 2250 -512.29561 -468.36344  8.58%     - 25173s
     0     0 -468.36344    0 2253 -512.29561 -468.36344  8.58%     - 25190s
     0     0 -468.69981    0 2232 -512.29561 -468.69981  8.51%     - 25731s
     0     0 -468.81360    0 2135 -512.29561 -468.81360  8.49%     - 26507s
     0     0 -468.88453    0 2239 -512.29561 -468.88453  8.47%     - 26767s
     0     0 -468.90452    0 2247 -512.29561 -468.90452  8.47%     - 26927s
     0     0 -468.93731    0 2243 -512.29561 -468.93731  8.46%     - 27067s
     0     0 -468.94457    0 2244 -512.29561 -468.94457  8.46%     - 27102s
     0     0 -468.94768    0 2244 -512.29561 -468.94768  8.46%     - 27143s
     0     0 -469.04759    0 2252 -512.29561 -469.04759  8.44%     - 27308s
     0     0 -469.20582    0 2250 -512.29561 -469.20582  8.41%     - 27675s
     0     0 -469.24697    0 2252 -512.29561 -469.24697  8.40%     - 27836s
     0     0 -469.25149    0 2250 -512.29561 -469.25149  8.40%     - 27858s
     0     0 -469.47499    0 2235 -512.29561 -469.47499  8.36%     - 28038s
     0     0 -469.53761    0 2233 -512.29561 -469.53761  8.35%     - 28295s
     0     0 -469.56572    0 2251 -512.29561 -469.56572  8.34%     - 28469s
     0     0 -469.62120    0 2247 -512.29561 -469.62120  8.33%     - 28554s
     0     0 -469.63000    0 2251 -512.29561 -469.63000  8.33%     - 28584s
     0     0 -469.63558    0 2249 -512.29561 -469.63558  8.33%     - 28603s
     0     0 -469.64695    0 2248 -512.29561 -469.64695  8.33%     - 28624s
     0     0 -469.65208    0 2242 -512.29561 -469.65208  8.32%     - 28658s
     0     0 -469.65545    0 2244 -512.29561 -469.65545  8.32%     - 28683s
     0     0 -469.65736    0 2244 -512.29561 -469.65736  8.32%     - 28713s
     0     0 -469.70109    0 2239 -512.29561 -469.70109  8.31%     - 29028s
     0     0 -469.76141    0 2233 -512.29561 -469.76141  8.30%     - 29153s
     0     0 -469.79006    0 2254 -512.29561 -469.79006  8.30%     - 29205s
     0     0 -469.80773    0 2259 -512.29561 -469.80773  8.29%     - 29270s
     0     0 -469.80961    0 2257 -512.29561 -469.80961  8.29%     - 29284s
     0     0 -470.13650    0 2232 -512.29561 -470.13650  8.23%     - 29460s
     0     0 -470.25746    0 2407 -512.29561 -470.25746  8.21%     - 29911s
     0     0 -470.34223    0 2409 -512.29561 -470.34223  8.19%     - 30018s
     0     0 -470.36919    0 2449 -512.29561 -470.36919  8.18%     - 30062s
     0     0 -470.39574    0 2441 -512.29561 -470.39574  8.18%     - 30105s
     0     0 -470.40391    0 2342 -512.29561 -470.40391  8.18%     - 30130s
     0     0 -470.40661    0 2442 -512.29561 -470.40661  8.18%     - 30146s
     0     0 -470.44453    0 2436 -512.29561 -470.44453  8.17%     - 30220s
     0     0 -470.50112    0 2439 -512.29561 -470.50112  8.16%     - 30446s
     0     0 -470.55764    0 2439 -512.29561 -470.55764  8.15%     - 30522s
     0     0 -470.58569    0 2432 -512.29561 -470.58569  8.14%     - 30583s
     0     0 -470.58792    0 2437 -512.29561 -470.58792  8.14%     - 30599s
     0     0 -470.58880    0 2445 -512.29561 -470.58880  8.14%     - 30632s
     0     0 -470.60453    0 2435 -512.29561 -470.60453  8.14%     - 30982s
     0     0 -470.61946    0 2426 -512.29561 -470.61946  8.14%     - 31014s
     0     0 -470.62374    0 2426 -512.29561 -470.62374  8.13%     - 31038s
     0     0 -470.63579    0 2440 -512.29561 -470.63579  8.13%     - 31129s
     0     0 -470.63579    0 2224 -512.29561 -470.63579  8.13%     - 31399s
     0     2 -470.63635    0 2221 -512.29561 -470.63635  8.13%     - 31858s
     1     3 -470.98690    1 2148 -512.29561 -470.63687  8.13%  8791 31912s
     2     4 -471.39214    1 1366 -512.29561 -470.98730  8.06%  6376 31939s
     3     5 -471.89454    2 1364 -512.29561 -470.98730  8.06%  4415 31946s
     4     6 -488.85043    2 1072 -512.29561 -470.98730  8.06%  8816 32163s
     5     7 -472.39693    3 1340 -512.29561 -470.98730  8.06%  7161 32169s
     6     8 -497.97712    3  850 -512.29561 -470.98730  8.06% 11152 32467s
     8    10 -472.77373    5 1274 -512.29561 -470.98730  8.06%  8421 32473s
     9    11 -486.33844    5 1354 -512.29561 -470.98730  8.06%  9864 32654s
    10    12 -473.27613    6 1271 -512.29561 -470.98730  8.06%  8919 32657s
    11    13 -490.35762    6 1194 -512.29561 -470.98730  8.06% 10108 32892s
    13    15 -473.77853    8 1268 -512.29561 -470.98730  8.06%  8587 32897s
    14    16 -497.47472    8  933 -512.29561 -470.98730  8.06%  9573 33119s
    15    17 -474.28092    9 1267 -512.29561 -470.98730  8.06%  8955 33122s
    16    18 -490.35762    9 1170 -512.29561 -470.98730  8.06%  9813 33338s
    19    21 -474.78332   12 1267 -512.29561 -470.98730  8.06%  8288 33343s
    20    22 -491.86481   12 1037 -512.29561 -470.98730  8.06%  9147 33605s
    22    24 -475.28572   14 1266 -512.29561 -470.98730  8.06%  8335 33610s
    23    25 -492.36721   14  936 -512.29561 -470.98730  8.06%  8674 33742s
    24    26 -475.78811   15 1264 -512.29561 -470.98730  8.06%  8340 33747s
    25    27 -507.43911   15  780 -512.29561 -470.98730  8.06%  9167 34052s
    27    29 -476.29051   17 1263 -512.29561 -470.98730  8.06%  8500 34063s
    28    30 -499.90316   17 1140 -512.29561 -470.98730  8.06%  8982 34257s
    29    31 -476.79291   18 1262 -512.29561 -470.98730  8.06%  8690 34261s
    30    32 -509.53224   18  815 -512.29561 -470.98730  8.06%  9258 34464s
    32    34 -477.29530   20 1261 -512.29561 -470.98730  8.06%  8690 34468s
    33    35 -498.89836   20  954 -512.29561 -470.98730  8.06%  9156 34720s
    36    38 -508.02505   22  837 -512.29561 -470.98730  8.06%  9048 34922s
    39    41 -478.30010   25 1254 -512.29561 -470.98730  8.06%  8358 34927s
    40    42 -499.90316   25  818 -512.29561 -470.98730  8.06%  8417 35007s
    42    44 -505.42952   26 1087 -512.29561 -470.98730  8.06%  8556 35196s
    44    46 -503.41993   27  849 -512.29561 -470.98730  8.06%  8680 35398s
    49    51 -479.30489   32 1252 -512.29561 -470.98730  8.06%  7795 35400s
    51    53 -504.92712   33  715 -512.29561 -470.98730  8.06%  7731 35481s
    53    55 -504.42473   34  778 -512.29561 -470.98730  8.06%  7694 35581s
    54    56 -480.81208   35 1246 -512.29561 -470.98730  8.06%  7557 35588s
    55    57 -498.39597   35 1100 -512.29561 -470.98730  8.06%  7555 35643s
    56    58 -481.31448   36 1242 -512.29561 -470.98730  8.06%  7423 35645s
    57    59 -503.92233   36 1043 -512.29561 -470.98730  8.06%  7485 35719s
    58    60 -481.81687   37 1240 -512.29561 -470.98730  8.06%  7357 35720s
    61    63 -509.95109   39  707 -512.29561 -470.98730  8.06%  7204 35805s
    63    65 -483.32406   41 1229 -512.29561 -470.98730  8.06%  6982 35810s
    65    67 -505.93192   42  723 -512.29561 -470.98730  8.06%  6916 35883s
    66    68 -484.32886   43 1165 -512.29561 -470.98730  8.06%  6813 35886s
    68    70 -485.33365   45 1156 -512.29561 -470.98730  8.06%  6619 35891s
    69    71 -496.88878   45  999 -512.29561 -470.98730  8.06%  6605 35922s
    72    74 -486.33844   48 1156 -512.29561 -470.98730  8.06%  6336 35926s
    73    75 -496.38638   48 1061 -512.29561 -470.98730  8.06%  6272 35940s
    77    79 -504.92712   51  860 -512.29561 -470.98730  8.06%  6030 35976s
    81    81     cutoff   54      -512.29561 -470.98730  8.06%  5764 35996s
    82    82 -487.84563   55 1152 -512.29561 -470.98730  8.06%  5695 36006s
    83    81     cutoff   55      -512.29561 -470.98730  8.06%  5742 36061s
    85    83 -489.85522   56 1118 -512.29561 -470.98730  8.06%  5618 36068s
    87    85 -490.35762   58 1062 -512.29561 -470.98730  8.06%  5491 36070s
    89    87 -504.42473   59  927 -512.29561 -470.98730  8.06%  5391 36086s
    91    89 -505.93192   61  816 -512.29561 -470.98730  8.06%  5275 36091s
    94    90 -506.93671   63  757 -512.29561 -470.98730  8.06%  5112 36095s
    98    92 -507.94151   66  695 -512.29561 -470.98730  8.06%  4906 36100s
   104    96 -510.95589   71  580 -512.29561 -470.98730  8.06%  4625 36105s
   110    96 -472.03224    2 2303 -512.29561 -471.00151  8.06%  4447 36202s
   111    97 -475.22136    3 2514 -512.29561 -471.00151  8.06%  7404 48679s
   112    98 -477.71005    4 2645 -512.29561 -471.00151  8.06%  7396 48785s

Cutting planes:
  Gomory: 3
  MIR: 2
  StrongCG: 1
  Zero half: 1774

Explored 113 nodes (1864331 simplex iterations) in 86401.04 seconds
Thread count was 1 (of 80 available processors)

Solution count 2: -512.296 -16762.6 

Time limit reached
Best objective -5.122956106588e+02, best bound -4.710015099594e+02, gap 8.0606%
